p cnf 115 270
a 26 31 36 41 46 51 57 63 69 75 0
e 114 115 0
a 21 22 23 24 25 0
e 2 3 4 5 6 7 9 10 12 13 15 16 18 19 29 30 34 35 39 40 44 45 49 50 55 56 61 62 67 68 73 74 79 80 81 82 83 84 85 8 11 14 17 20 27 28 32 33 37 38 42 43 47 48 52 53 54 58 59 60 64 65 66 70 71 72 76 77 78 87 89 91 93 95 86 88 90 92 94 96 97 98 99 100 102 103 104 105 106 107 108 109 110 111 113 112 0
114 115 0
26 31 36 41 46 51 57 63 69 75 -115 0
6 -7 -114 0
7 -6 -114 0
8 -7 -114 0
7 -8 -114 0
9 -10 -114 0
10 -9 -114 0
11 -10 -114 0
10 -11 -114 0
12 -13 -114 0
13 -12 -114 0
14 -13 -114 0
13 -14 -114 0
15 -16 -114 0
16 -15 -114 0
17 -16 -114 0
16 -17 -114 0
18 -19 -114 0
19 -18 -114 0
20 -19 -114 0
19 -20 -114 0
29 -27 -114 0
29 -28 -114 0
27 28 -29 -114 0
29 -30 -114 0
30 -29 -114 0
34 -32 -114 0
34 -33 -114 0
32 33 -34 -114 0
34 -35 -114 0
35 -34 -114 0
39 -37 -114 0
39 -38 -114 0
37 38 -39 -114 0
39 -40 -114 0
40 -39 -114 0
44 -42 -114 0
44 -43 -114 0
42 43 -44 -114 0
44 -45 -114 0
45 -44 -114 0
49 -47 -114 0
49 -48 -114 0
47 48 -49 -114 0
49 -50 -114 0
50 -49 -114 0
55 -52 -114 0
55 -53 -114 0
55 -54 -114 0
52 53 54 -55 -114 0
55 -56 -114 0
56 -55 -114 0
61 -58 -114 0
61 -59 -114 0
61 -60 -114 0
58 59 60 -61 -114 0
61 -62 -114 0
62 -61 -114 0
67 -64 -114 0
67 -65 -114 0
67 -66 -114 0
64 65 66 -67 -114 0
67 -68 -114 0
68 -67 -114 0
73 -70 -114 0
73 -71 -114 0
73 -72 -114 0
70 71 72 -73 -114 0
73 -74 -114 0
74 -73 -114 0
79 -76 -114 0
79 -77 -114 0
79 -78 -114 0
76 77 78 -79 -114 0
79 -80 -114 0
80 -79 -114 0
51 -81 -114 0
81 -51 -114 0
57 -82 -114 0
82 -57 -114 0
63 -83 -114 0
83 -63 -114 0
69 -84 -114 0
84 -69 -114 0
75 -85 -114 0
85 -75 -114 0
51 -8 -114 0
26 -8 -114 0
8 -51 -26 -114 0
57 -11 -114 0
31 -11 -114 0
11 -57 -31 -114 0
63 -14 -114 0
36 -14 -114 0
14 -63 -36 -114 0
69 -17 -114 0
41 -17 -114 0
17 -69 -41 -114 0
75 -20 -114 0
46 -20 -114 0
20 -75 -46 -114 0
51 -27 -114 0
86 -27 -114 0
27 -51 -86 -114 0
51 -28 -114 0
26 -28 -114 0
87 -28 -114 0
28 -51 -26 -87 -114 0
57 -32 -114 0
88 -32 -114 0
2 -32 -114 0
32 -57 -88 -2 -114 0
57 -33 -114 0
31 -33 -114 0
89 -33 -114 0
33 -57 -31 -89 -114 0
63 -37 -114 0
90 -37 -114 0
3 -37 -114 0
37 -63 -90 -3 -114 0
63 -38 -114 0
36 -38 -114 0
91 -38 -114 0
38 -63 -36 -91 -114 0
69 -42 -114 0
92 -42 -114 0
4 -42 -114 0
42 -69 -92 -4 -114 0
69 -43 -114 0
41 -43 -114 0
93 -43 -114 0
43 -69 -41 -93 -114 0
75 -47 -114 0
94 -47 -114 0
5 -47 -114 0
47 -75 -94 -5 -114 0
75 -48 -114 0
46 -48 -114 0
95 -48 -114 0
48 -75 -46 -95 -114 0
96 -52 -114 0
86 -52 -114 0
21 -52 -114 0
52 -96 -86 -21 -114 0
51 -53 -114 0
86 -53 -114 0
53 -51 -86 -114 0
51 -54 -114 0
26 -54 -114 0
87 -54 -114 0
54 -51 -26 -87 -114 0
97 -58 -114 0
88 -58 -114 0
22 -58 -114 0
58 -97 -88 -22 -114 0
57 -59 -114 0
88 -59 -114 0
59 -57 -88 -114 0
57 -60 -114 0
31 -60 -114 0
89 -60 -114 0
60 -57 -31 -89 -114 0
98 -64 -114 0
90 -64 -114 0
23 -64 -114 0
64 -98 -90 -23 -114 0
63 -65 -114 0
90 -65 -114 0
65 -63 -90 -114 0
63 -66 -114 0
36 -66 -114 0
91 -66 -114 0
66 -63 -36 -91 -114 0
99 -70 -114 0
92 -70 -114 0
24 -70 -114 0
70 -99 -92 -24 -114 0
69 -71 -114 0
92 -71 -114 0
71 -69 -92 -114 0
69 -72 -114 0
41 -72 -114 0
93 -72 -114 0
72 -69 -41 -93 -114 0
100 -76 -114 0
94 -76 -114 0
25 -76 -114 0
76 -100 -94 -25 -114 0
75 -77 -114 0
94 -77 -114 0
77 -75 -94 -114 0
75 -78 -114 0
46 -78 -114 0
95 -78 -114 0
78 -75 -46 -95 -114 0
21 87 -114 0
-21 -87 -114 0
22 89 -114 0
-22 -89 -114 0
23 91 -114 0
-23 -91 -114 0
24 93 -114 0
-24 -93 -114 0
25 95 -114 0
-25 -95 -114 0
26 86 -114 0
-26 -86 -114 0
31 88 -114 0
-31 -88 -114 0
36 90 -114 0
-36 -90 -114 0
41 92 -114 0
-41 -92 -114 0
46 94 -114 0
-46 -94 -114 0
51 96 -114 0
-51 -96 -114 0
57 97 -114 0
-57 -97 -114 0
63 98 -114 0
-63 -98 -114 0
69 99 -114 0
-69 -99 -114 0
75 100 -114 0
-75 -100 -114 0
7 -102 -114 0
19 -102 -114 0
102 -7 -19 -114 0
10 -103 -114 0
13 -103 -114 0
103 -10 -13 -114 0
10 -104 -114 0
16 -104 -114 0
104 -10 -16 -114 0
10 -105 -114 0
19 -105 -114 0
105 -10 -19 -114 0
13 -106 -114 0
16 -106 -114 0
106 -13 -16 -114 0
13 -107 -114 0
19 -107 -114 0
107 -13 -19 -114 0
7 -108 -114 0
10 -108 -114 0
108 -7 -10 -114 0
16 -109 -114 0
19 -109 -114 0
109 -16 -19 -114 0
7 -110 -114 0
13 -110 -114 0
110 -7 -13 -114 0
7 -111 -114 0
16 -111 -114 0
111 -7 -16 -114 0
112 113 -114 0
-112 -113 -114 0
112 -108 -114 0
112 -110 -114 0
112 -111 -114 0
112 -102 -114 0
112 -103 -114 0
112 -104 -114 0
112 -105 -114 0
112 -106 -114 0
112 -107 -114 0
112 -109 -114 0
108 110 111 102 103 104 105 106 107 109 -112 -114 0
113 -114 0
